This is Ipopt version 3.10.1, running with linear solver mumps.

Number of nonzeros in equality constraint Jacobian...:      225
Number of nonzeros in inequality constraint Jacobian.:        0
Number of nonzeros in Lagrangian Hessian.............:     5568

Total number of variables............................:      114
                     variables with only lower bounds:        0
                variables with lower and upper bounds:      114
                     variables with only upper bounds:        0
Total number of equality constraints.................:       75
Total number of inequality constraints...............:        0
        inequality constraints with only lower bounds:        0
   inequality constraints with lower and upper bounds:        0
        inequality constraints with only upper bounds:        0

iter    objective    inf_pr   inf_du lg(mu)  ||d||  lg(rg) alpha_du alpha_pr  ls
   0 -5.5547414e-05 1.00e-02 3.80e-05  -1.0 0.00e+00    -  0.00e+00 0.00e+00   0
   1 -5.4246270e-05 2.22e-16 1.06e-03  -1.7 1.94e-02    -  9.92e-01 1.00e+00h  1
   2 -5.1097038e-05 2.10e-10 2.93e-03  -2.5 4.05e-02    -  9.79e-01 1.00e+00f  1
   3 -4.8165621e-05 2.22e-16 1.82e-05  -3.8 4.48e-02    -  9.97e-01 1.00e+00f  1
   4 -5.4331821e-05 5.61e-13 1.39e-04  -5.7 1.46e-02    -  9.42e-01 1.00e+00f  1
   5 -1.8321724e-05 3.95e-13 1.46e-04  -5.7 6.23e-01  -4.0 2.62e-01 2.96e-01h  1
   6 -4.4646872e-04 3.83e-13 1.05e-03  -5.7 8.32e+00    -  1.37e-02 4.18e-02f  1
   7 -4.3066689e-04 3.77e-13 1.03e-03  -5.7 1.65e-01  -2.7 4.60e-02 1.56e-02f  7
   8 -4.9305135e-04 3.42e-13 9.33e-04  -5.7 8.39e-02  -2.2 9.98e-01 1.40e-01f  1
   9 -4.7762178e-04 3.37e-13 9.21e-04  -5.7 1.69e-01  -2.7 2.79e-01 1.56e-02f  7
iter    objective    inf_pr   inf_du lg(mu)  ||d||  lg(rg) alpha_du alpha_pr  ls
  10 -8.2894916e-04 2.26e-13 1.04e-03  -5.7 1.46e-01  -2.3 1.00e+00 3.28e-01f  1
  11 -1.1754722e-03 3.55e-13 1.00e-03  -5.7 5.56e-02  -1.9 1.00e+00 5.20e-01f  1
  12 -1.1658632e-03 3.54e-13 9.96e-04  -5.7 1.79e-01  -2.3 1.52e-01 3.91e-03f  9
  13 -1.1588338e-03 3.51e-13 3.24e-03  -5.7 1.81e+00  -1.9 6.74e-02 1.43e-03f  9
  14 -1.4261911e-03 3.45e-13 9.34e-04  -5.7 2.61e-02  -1.5 1.00e+00 6.37e-01f  1
  15 -1.7766119e-03 5.18e-13 1.38e-02  -5.7 1.02e+00  -2.0 5.60e-01 1.73e-02f  1
  16 -1.7717675e-03 5.17e-13 7.22e-03  -5.7 1.39e-01  -2.4 3.80e-01 1.95e-03f 10
  17 -8.2326915e-05 7.77e-16 1.60e-02  -5.7 4.84e-01  -2.0 1.20e-01 1.00e+00h  1
  18 -9.7387852e-05 5.55e-15 1.02e-04  -5.7 2.20e-02  -2.5 9.86e-01 1.00e+00F  1
  19 -2.4405364e-04 7.09e-14 2.13e-04  -5.7 9.97e-02  -3.0 1.00e+00 1.00e+00f  1
iter    objective    inf_pr   inf_du lg(mu)  ||d||  lg(rg) alpha_du alpha_pr  ls
  20 -5.4381726e-04 1.52e-13 4.76e-04  -5.7 8.94e-02  -2.6 1.00e+00 8.44e-01f  1
  21 -7.4174079e-04 7.02e-14 5.15e-04  -5.7 5.91e-02  -2.1 1.00e+00 5.38e-01f  1
  22 -7.2953497e-04 6.97e-14 5.42e-04  -5.7 1.85e-01  -2.6 1.91e-01 7.81e-03f  8
  23 -1.0019742e-03 5.31e-14 2.05e-03  -5.7 1.41e-01  -2.2 1.00e+00 2.39e-01f  1
  24 -9.9146065e-04 5.26e-14 1.57e-03  -5.7 1.82e-01  -2.7 1.39e-01 7.81e-03f  8
  25 -9.9301395e-04 5.26e-14 7.01e-03  -5.7 2.03e+00  -2.2 2.54e-01 6.46e-05f  2
  26 -1.0936520e-03 1.99e-14 3.16e-03  -5.7 5.05e-01  -2.7 3.52e-01 6.21e-01h  1
  27 -2.1900954e-03 5.74e-13 2.44e-03  -5.7 4.10e-01  -2.3 5.69e-01 1.91e-01f  1
  28 -2.7780921e-03 4.98e-13 4.82e-03  -5.7 1.88e-01  -1.9 1.00e+00 1.32e-01f  1
  29 -3.2362592e-03 7.96e-13 1.90e-03  -5.7 3.60e-02  -1.4 1.00e+00 5.06e-01f  1
iter    objective    inf_pr   inf_du lg(mu)  ||d||  lg(rg) alpha_du alpha_pr  ls
  30 -3.9866588e-03 7.76e-13 1.91e-02  -5.7 1.04e+00  -1.9 3.93e-01 2.60e-02f  1
  31 -6.6473963e-03 1.06e-13 3.57e-03  -5.7 7.50e-02  -1.5 1.00e+00 8.63e-01f  1
  32 -6.6413958e-03 1.06e-13 3.88e-03  -5.7 2.94e-01  -2.0 2.13e-01 6.84e-04f 11
  33 -7.6813646e-03 6.31e-13 4.09e-02  -5.7 7.36e-01  -1.5 6.17e-01 2.72e-02f  1
  34 -8.4180566e-03 9.63e-13 6.89e-03  -5.7 6.40e-02  -1.1 1.00e+00 1.87e-01f  1
  35 -9.7749665e-03 1.51e-12 4.47e-03  -5.7 2.09e-02  -0.7 1.00e+00 1.00e+00f  1
  36 -1.2148853e-02 1.80e-12 1.32e-02  -5.7 1.27e-01  -1.2 1.00e+00 2.46e-01f  1
  37 -1.2146246e-02 1.80e-12 1.15e-02  -5.7 4.14e-01  -1.6 2.54e-02 1.01e-04f 14
  38 -1.2139991e-02 1.80e-12 8.15e-03  -5.7 3.03e+01  -1.2 1.19e-03 5.29e-06f 12
  39 -1.3951937e-02 1.71e-12 6.92e-03  -5.7 4.29e-02  -0.8 1.00e+00 5.41e-01f  1
iter    objective    inf_pr   inf_du lg(mu)  ||d||  lg(rg) alpha_du alpha_pr  ls
  40 -1.4188689e-02 1.78e-12 5.45e-02  -5.7 3.58e-01  -1.3 9.48e-01 8.85e-03f  1
  41 -1.6538851e-02 7.35e-13 7.11e-03  -5.7 5.36e-02  -0.8 1.00e+00 5.88e-01f  1
  42 -1.7760411e-02 7.09e-13 4.58e-02  -5.7 3.97e-01  -1.3 6.07e-01 3.46e-02f  1
  43 -1.9094233e-02 1.51e-12 1.07e-02  -5.7 5.45e-02  -0.9 1.00e+00 3.44e-01f  1
  44 -2.3383406e-02 1.28e-12 4.17e-02  -5.7 4.00e-01  -1.4 9.27e-01 1.49e-01f  1
  45 -2.5957168e-02 1.84e-12 1.21e-02  -5.7 9.91e-02  -0.9 1.00e+00 3.06e-01f  1
  46 -3.1790229e-02 5.64e-12 7.02e-02  -5.7 2.54e+00  -1.4 1.88e-01 2.71e-02f  1
  47 -4.2030444e-02 4.46e-13 1.03e-02  -5.7 9.62e-02  -1.0 1.00e+00 9.21e-01f  1
  48 -4.4448476e-02 2.79e-12 1.50e-02  -5.7 4.04e-02  -0.6 1.00e+00 4.48e-01f  1
  49 -5.1845845e-02 2.04e-12 3.21e-02  -5.7 1.76e-01  -1.0 7.59e-01 2.69e-01f  1
iter    objective    inf_pr   inf_du lg(mu)  ||d||  lg(rg) alpha_du alpha_pr  ls
  50 -5.7539609e-02 4.87e-12 1.37e-02  -5.7 5.72e-02  -0.6 1.00e+00 5.99e-01f  1
  51 -5.9521287e-02 4.55e-12 6.88e-02  -5.7 1.30e-01  -1.1 6.64e-01 6.60e-02f  1
  52 -6.1222186e-02 4.74e-12 4.61e-02  -5.7 4.01e-02  -0.7 9.56e-01 2.12e-01f  1
  53 -7.2265675e-02 3.20e-12 4.60e-02  -5.7 1.38e-01  -1.1 5.93e-01 3.25e-01f  1
  54 -7.3130105e-02 2.86e-12 6.61e-02  -5.7 4.68e-02  -0.7 1.00e+00 1.04e-01f  1
  55 -7.9797133e-02 2.46e-12 8.05e-02  -5.7 2.25e-01  -1.2 1.00e+00 1.40e-01f  1
  56 -8.6858567e-02 5.94e-12 2.15e-02  -5.7 5.87e-02  -0.8 1.00e+00 4.87e-01f  1
  57 -1.2265616e-01 5.23e-12 5.90e-02  -5.7 9.40e-01  -1.2 2.77e-01 1.21e-01f  1
  58 -1.2322207e-01 5.00e-12 1.03e-01  -5.7 9.21e-02  -0.8 3.97e-01 4.32e-02f  1
  59 -1.2726873e-01 4.97e-12 1.03e-01  -5.7 4.73e+00  -1.3 6.77e-03 6.25e-03f  1
iter    objective    inf_pr   inf_du lg(mu)  ||d||  lg(rg) alpha_du alpha_pr  ls
  60 -1.3297844e-01 4.92e-12 7.55e-02  -5.7 3.90e+00  -1.8 9.33e-04 1.07e-02f  1
  61 -1.3296941e-01 4.91e-12 6.68e-02  -5.7 7.95e-01  -1.3 2.14e-01 3.14e-04f  6
  62 -1.3955612e-01 3.92e-12 6.45e-02  -5.7 1.18e-01  -0.9 6.47e-02 2.03e-01f  1
  63 -1.4535061e-01 3.44e-12 1.21e-01  -5.7 6.50e-01  -1.4 3.66e-01 1.22e-01f  1
  64 -1.5691897e-01 1.06e-11 6.96e-02  -5.7 1.88e-01  -1.0 3.93e-01 2.45e-01f  1
  65 -1.6041278e-01 1.16e-11 8.37e-02  -5.7 6.50e-02  -0.5 9.87e-01 2.03e-01f  1
  66 -2.0701025e-01 2.84e-11 5.27e-02  -5.7 2.57e-01  -1.0 4.64e-01 4.02e-01f  1
  67 -2.1982291e-01 3.14e-11 1.30e-01  -5.7 1.40e-01  -0.6 1.00e+00 1.57e-01f  1
  68 -2.2930385e-01 2.66e-11 1.15e-01  -5.7 9.06e-01    -  8.03e-02 1.52e-01f  1
  69 -2.3228492e-01 2.06e-11 1.07e-01  -5.7 3.35e-02  -0.2 9.46e-01 2.28e-01f  1
iter    objective    inf_pr   inf_du lg(mu)  ||d||  lg(rg) alpha_du alpha_pr  ls
  70 -2.3712299e-01 2.16e-11 9.57e-02  -5.7 1.58e-01  -0.6 2.39e-01 8.09e-02f  1
  71 -2.4695785e-01 2.42e-11 6.24e-02  -5.7 4.28e-02  -0.2 1.87e-01 5.59e-01f  1
  72 -2.4855953e-01 1.99e-11 6.82e-02  -5.7 6.21e-01    -  5.48e-02 1.78e-01f  1
  73 -2.8155711e-01 1.65e-11 2.08e-01  -5.7 3.97e-01  -0.7 6.61e-01 1.71e-01f  1
  74 -2.8155166e-01 1.65e-11 1.58e-01  -5.7 1.74e-01  -1.2 1.09e-01 5.17e-05f 13
  75 -2.2729433e-01 4.28e-12 7.41e-01  -5.7 4.31e-01  -0.7 9.98e-02 7.41e-01h  1
  76 -2.2738716e-01 7.93e-13 1.92e-01  -5.7 2.67e-01  -1.2 1.16e-01 8.15e-01f  1
  77 -2.3992352e-01 1.06e-11 1.69e-01  -5.7 2.38e-01  -0.8 1.00e+00 1.62e-01F  1
  78 -2.4051805e-01 1.14e-11 1.65e-01  -5.7 6.41e-02  -0.4 3.75e-03 2.44e-02f  5
  79 -2.4078871e-01 1.16e-11 3.71e-01  -5.7 9.05e+00  -0.8 2.36e-02 8.40e-05f  6
iter    objective    inf_pr   inf_du lg(mu)  ||d||  lg(rg) alpha_du alpha_pr  ls
  80 -2.5541554e-01 1.11e-11 3.57e-01  -5.7 4.54e+00    -  8.51e-03 3.67e-02f  1
  81 -2.5535789e-01 1.11e-11 2.71e-01  -5.7 2.24e-01    -  1.77e-01 2.39e-03f  4
  82 -2.4828615e-01 8.84e-12 2.61e-01  -5.7 1.41e-01  -1.3 9.39e-02 2.06e-01h  1
  83 -2.4827576e-01 8.83e-12 2.54e-01  -5.7 1.07e-01  -1.8 7.85e-03 5.53e-04f 10
  84 -2.4050139e-01 1.63e-12 5.76e-01  -5.7 1.03e-01    -  2.78e-02 8.15e-01h  1
  85 -2.4100257e-01 1.10e-12 4.55e-01  -5.7 5.36e-02  -2.3 9.79e-02 3.27e-01f  1
  86 -2.4862222e-01 8.11e-13 2.74e-01  -5.7 1.96e-01  -1.0 3.45e-02 2.61e-01f  1
  87 -2.4861406e-01 1.68e-12 3.70e-01  -5.7 1.73e-01  -0.5 1.00e+00 2.92e-02f  5
  88 -2.5217828e-01 4.44e-16 2.31e-01  -5.7 2.27e-02  -0.1 3.53e-01 1.00e+00F  1
  89 -2.5889518e-01 2.36e-11 1.01e-01  -5.7 6.36e-02  -0.6 5.46e-01 6.63e-01f  1
iter    objective    inf_pr   inf_du lg(mu)  ||d||  lg(rg) alpha_du alpha_pr  ls
  90 -2.6263036e-01 9.87e-12 1.70e-02  -5.7 2.39e-02  -0.2 1.00e+00 1.00e+00f  1
  91 -2.6944951e-01 1.07e-11 1.67e-02  -5.7 6.89e-02  -0.6 1.00e+00 6.66e-01f  1
  92 -2.8927088e-01 5.28e-12 5.22e-02  -5.7 3.01e-01  -1.1 3.00e-01 5.06e-01f  1
  93 -3.0006846e-01 2.45e-11 1.23e-02  -5.7 4.47e-02  -0.7 1.00e+00 1.00e+00f  1
  94 -3.0489740e-01 1.41e-11 6.77e-02  -5.7 4.86e-01  -1.2 5.20e-01 4.22e-01h  1
  95 -3.1558837e-01 2.22e-16 1.44e-02  -5.7 7.06e-02  -0.7 1.00e+00 1.00e+00f  1
  96 -3.2005896e-01 4.01e-12 2.91e-01  -5.7 4.60e-01  -1.2 9.43e-01 4.84e-02f  1
  97 -3.4936281e-01 2.95e-12 3.76e-01  -5.7 1.33e+00    -  7.19e-01 2.64e-01f  1
  98 -3.4935910e-01 2.95e-12 3.20e-01  -5.7 1.66e+00  -1.7 1.06e-01 4.42e-05f 12
  99 -3.5233332e-01 2.87e-12 6.18e-01  -5.7 1.37e+00    -  7.20e-01 3.00e-02f  1
iter    objective    inf_pr   inf_du lg(mu)  ||d||  lg(rg) alpha_du alpha_pr  ls
 100 -3.5231078e-01 2.85e-12 9.39e-02  -5.7 1.04e-01    -  1.00e+00 3.91e-03f  9
 101 -3.4956997e-01 3.55e-15 6.04e-01  -5.7 1.03e-01    -  7.59e-02 1.00e+00h  1
 102 -3.4955489e-01 2.00e-15 2.14e-04  -5.7 1.05e-02    -  1.00e+00 1.00e+00h  1
 103 -3.4955502e-01 2.22e-16 2.61e-05  -5.7 4.65e-04  -1.3 1.00e+00 1.00e+00F  1
Restoration phase is called at point that is almost feasible,
  with constraint violation 2.775558e-15. Abort.

Number of Iterations....: 103

                                   (scaled)                 (unscaled)
Objective...............:  -3.4955502032231661e-01   -3.4955502032231661e-01
Dual infeasibility......:   2.6075030006156285e-05    2.6075030006156285e-05
Constraint violation....:   2.2204460492503131e-16    2.2204460492503131e-16
Complementarity.........:   1.8513284784010133e-06    1.8513284784010133e-06
Overall NLP error.......:   2.6075030006156285e-05    2.6075030006156285e-05


Number of objective function evaluations             = 285
Number of objective gradient evaluations             = 105
Number of equality constraint evaluations            = 285
Number of inequality constraint evaluations          = 0
Number of equality constraint Jacobian evaluations   = 1
Number of inequality constraint Jacobian evaluations = 0
Number of Lagrangian Hessian evaluations             = 104
Total CPU secs in IPOPT (w/o function evaluations)   =      1.540
Total CPU secs in NLP function evaluations           =     28.500

EXIT: Restoration Failed!
